networks/zoo_50_480/zoo_50_480-lower.sol
<?xml version = "1.0" encoding="UTF-8" standalone="yes"?>
<CPLEXSolution version="1.2">
 <header
   problemName="networks/zoo_50_480/zoo_50_480-lower.lp"
   solutionName="incumbent"
   solutionIndex="-1"
   objectiveValue="24"
   solutionTypeValue="3"
   solutionTypeString="primal"
   solutionStatusValue="101"
   solutionStatusString="integer optimal solution"
   solutionMethodString="mip"
   primalFeasible="1"
   dualFeasible="1"
   MIPNodes="0"
   MIPIterations="0"
   writeLevel="3"/>
 <quality
   epInt="1.0000000000000001e-05"
   epRHS="9.9999999999999995e-07"
   maxIntInfeas="0"
   maxPrimalInfeas="0"
   maxX="1"
   maxSlack="1"/>
 <variables>
  <variable name="Y(1,2)" index="1" value="1"/>
  <variable name="Y(2,4)" index="52" value="1"/>
  <variable name="Y(3,5)" index="102" value="1"/>
  <variable name="Y(4,6)" index="152" value="1"/>
  <variable name="Y(5,7)" index="202" value="1"/>
  <variable name="Y(6,8)" index="252" value="1"/>
  <variable name="Y(7,9)" index="302" value="1"/>
  <variable name="Y(8,13)" index="355" value="1"/>
  <variable name="Y(9,14)" index="405" value="1"/>
  <variable name="Y(10,15)" index="455" value="1"/>
  <variable name="Y(11,16)" index="505" value="1"/>
  <variable name="Y(12,17)" index="555" value="1"/>
  <variable name="Y(13,18)" index="605" value="1"/>
  <variable name="Y(14,19)" index="655" value="1"/>
  <variable name="Y(15,20)" index="705" value="1"/>
  <variable name="Y(16,21)" index="755" value="1"/>
  <variable name="Y(17,22)" index="805" value="1"/>
  <variable name="Y(18,23)" index="855" value="1"/>
  <variable name="Y(19,24)" index="905" value="1"/>
  <variable name="Y(20,25)" index="955" value="1"/>
  <variable name="Y(21,1)" index="980" value="1"/>
  <variable name="Y(28,10)" index="1332" value="1"/>
  <variable name="Y(29,11)" index="1382" value="1"/>
  <variable name="Y(30,12)" index="1432" value="1"/>
  <variable name="X(1,2,1)" index="23520" value="1"/>
  <variable name="X(1,3,11)" index="24010" value="1"/>
  <variable name="X(1,4,2)" index="24481" value="1"/>
  <variable name="X(1,26,21)" index="24980" value="1"/>
  <variable name="X(2,1,21)" index="25460" value="1"/>
  <variable name="X(2,7,3)" index="25922" value="1"/>
  <variable name="X(2,8,6)" index="26405" value="1"/>
  <variable name="X(2,27,1)" index="26880" value="1"/>
  <variable name="X(3,1,44)" index="27403" value="1"/>
  <variable name="X(3,4,46)" index="27885" value="1"/>
  <variable name="X(3,17,12)" index="28331" value="1"/>
  <variable name="X(3,23,11)" index="28810" value="1"/>
  <variable name="X(4,1,68)" index="29347" value="1"/>
  <variable name="X(4,3,79)" index="29838" value="1"/>
  <variable name="X(4,29,2)" index="30241" value="1"/>
  <variable name="X(5,6,4)" index="30723" value="1"/>
  <variable name="X(5,7,89)" index="31288" value="1"/>
  <variable name="X(5,30,3)" index="31682" value="1"/>
  <variable name="X(6,5,112)" index="32271" value="1"/>
  <variable name="X(6,9,94)" index="32733" value="1"/>
  <variable name="X(6,12,30)" index="33149" value="1"/>
  <variable name="X(6,13,8)" index="33607" value="1"/>
  <variable name="X(6,14,9)" index="34088" value="1"/>
  <variable name="X(6,31,4)" index="34563" value="1"/>
  <variable name="X(7,2,89)" index="35128" value="1"/>
  <variable name="X(7,5,3)" index="35522" value="1"/>
  <variable name="X(7,32,5)" index="36004" value="1"/>
  <variable name="X(8,2,154)" index="36633" value="1"/>
  <variable name="X(8,9,7)" index="36966" value="1"/>
  <variable name="X(8,33,6)" index="37445" value="1"/>
  <variable name="X(9,6,158)" index="38077" value="1"/>
  <variable name="X(9,8,94)" index="38493" value="1"/>
  <variable name="X(9,11,29)" index="38908" value="1"/>
  <variable name="X(9,15,10)" index="39369" value="1"/>
  <variable name="X(9,34,7)" index="39846" value="1"/>
  <variable name="X(10,14,197)" index="40516" value="1"/>
  <variable name="X(10,35,28)" index="40827" value="1"/>
  <variable name="X(11,9,218)" index="41497" value="1"/>
  <variable name="X(11,36,29)" index="41788" value="1"/>
  <variable name="X(12,6,239)" index="42478" value="1"/>
  <variable name="X(12,37,30)" index="42749" value="1"/>
  <variable name="X(13,6,260)" index="43459" value="1"/>
  <variable name="X(13,38,8)" index="43687" value="1"/>
  <variable name="X(14,6,197)" index="44356" value="1"/>
  <variable name="X(14,10,28)" index="44667" value="1"/>
  <variable name="X(14,39,9)" index="45128" value="1"/>
  <variable name="X(15,9,292)" index="45891" value="1"/>
  <variable name="X(15,40,10)" index="46089" value="1"/>
  <variable name="X(16,23,308)" index="46867" value="1"/>
  <variable name="X(16,41,11)" index="47050" value="1"/>
  <variable name="X(17,3,326)" index="47845" value="1"/>
  <variable name="X(17,22,15)" index="48014" value="1"/>
  <variable name="X(17,42,12)" index="48491" value="1"/>
  <variable name="X(18,19,349)" index="49308" value="1"/>
  <variable name="X(18,43,13)" index="49452" value="1"/>
  <variable name="X(19,18,13)" index="49932" value="1"/>
  <variable name="X(19,20,321)" index="50720" value="1"/>
  <variable name="X(19,21,349)" index="51228" value="1"/>
  <variable name="X(19,44,14)" index="51373" value="1"/>
  <variable name="X(20,19,341)" index="52180" value="1"/>
  <variable name="X(20,22,361)" index="52680" value="1"/>
  <variable name="X(20,45,15)" index="52814" value="1"/>
  <variable name="X(21,19,13)" index="53292" value="1"/>
  <variable name="X(21,23,349)" index="54108" value="1"/>
  <variable name="X(21,46,16)" index="54255" value="1"/>
  <variable name="X(22,17,361)" index="55080" value="1"/>
  <variable name="X(22,20,15)" index="55214" value="1"/>
  <variable name="X(22,24,19)" index="55698" value="1"/>
  <variable name="X(22,47,17)" index="56176" value="1"/>
  <variable name="X(23,3,308)" index="56947" value="1"/>
  <variable name="X(23,16,11)" index="57130" value="1"/>
  <variable name="X(23,21,13)" index="57612" value="1"/>
  <variable name="X(23,25,20)" index="58099" value="1"/>
  <variable name="X(23,48,18)" index="58577" value="1"/>
  <variable name="X(24,22,459)" index="59498" value="1"/>
  <variable name="X(24,49,19)" index="59538" value="1"/>
  <variable name="X(25,23,465)" index="60464" value="1"/>
  <variable name="X(25,50,20)" index="60499" value="1"/>
 </variables>
</CPLEXSolution>
